NAME : CMT11Q.939354.tour
COMMENT : Cost = 0_939354
COMMENT : Found by LKH [Keld Helsgaun] Fri Sep 15 01:03:48 2017
TYPE : TOUR
DIMENSION : 126
TOUR_SECTION
1
103
102
100
101
117
99
74
77
78
79
73
76
75
72
71
70
68
108
106
123
88
90
87
112
83
120
124
96
97
95
111
53
55
58
60
66
62
63
65
67
64
61
57
59
56
54
81
80
69
104
105
107
121
126
110
38
39
40
43
42
45
48
47
50
51
52
49
46
44
41
116
98
94
122
82
3
2
4
5
6
11
12
16
15
14
10
8
7
84
114
118
85
113
86
89
125
92
115
22
21
24
27
29
33
36
30
37
35
32
31
34
28
25
23
26
20
17
18
13
9
109
119
19
91
93
-1
EOF
